p cnf 12 24
-5 -6 -7 8 0
5 -8 0
6 -8 0
7 -8 0
2 3 8 9 0
-2 -3 8 9 0
2 3 4 9 0
-2 3 -9 0
-4 -8 -9 0
2 -3 -9 0
-2 -8 -9 0
-5 -6 -7 10 0
5 -10 0
6 -10 0
7 -10 0
2 3 10 1 0
-2 -3 10 1 0
2 3 4 1 0
-2 3 -1 0
-4 -10 -1 0
2 -3 -1 0
-2 -10 -1 0
9 1 0
-9 -1 0
